output ([(((("\n"++problem_name)++"\n")++"L:")++show(L))++"\n"]++[if problem[i,j]==0 then "*" else show(letters[fix(L[problem[i,j]])]) endif++if j==cols then "\n" else "" endif | i in 1..rows, j in 1..cols, ])++["\n"];
int: rows = 23;
int: cols = 23;
array [1..rows,1..cols] of int: problem = [|1,2,3,4,5,0,6,7,8,9,10,0,11,12,13,14,15,0,16,17,18,19,20|21,22,23,24,25,0,26,27,28,29,30,0,31,32,33,34,35,0,36,37,38,39,40|41,42,43,44,45,0,46,47,48,49,50,0,51,52,53,54,55,0,56,57,58,59,60|61,62,63,64,65,66,67,68,69,0,70,71,72,0,73,74,75,76,77,78,79,80,81|82,83,84,85,86,87,88,89,0,90,91,92,93,94,0,95,96,97,98,99,100,101,102|0,0,0,103,104,105,106,0,107,108,109,110,111,112,113,0,114,115,116,117,0,0,0|118,119,120,121,122,123,0,124,125,126,127,128,0,129,130,131,0,132,133,134,135,136,137|138,139,140,141,142,0,143,144,145,146,147,0,148,149,150,151,152,0,153,154,155,156,157|158,159,160,161,0,162,163,164,165,166,0,167,168,169,170,171,172,173,0,174,175,176,177|178,179,180,0,181,182,183,184,185,0,186,187,188,0,189,190,191,192,193,0,194,195,196|197,198,199,200,201,202,0,203,204,205,206,207,208,209,0,210,211,212,213,214,215,216,217|0,0,0,218,219,220,221,0,222,223,224,225,226,227,228,0,229,230,231,232,0,0,0|233,234,235,236,237,238,239,240,0,241,242,243,244,245,246,247,0,248,249,250,251,252,253|254,255,256,0,257,258,259,260,261,0,262,263,264,0,265,266,267,268,269,0,270,271,272|273,274,275,276,0,277,278,279,280,281,282,283,0,284,285,286,287,288,0,289,290,291,292|293,294,295,296,297,0,298,299,300,301,302,0,303,304,305,306,307,0,308,309,310,311,312|313,314,315,316,317,318,0,319,320,321,0,322,323,324,325,326,0,327,328,329,330,331,332|0,0,0,333,334,335,336,0,337,338,339,340,341,342,343,0,344,345,346,347,0,0,0|348,349,350,351,352,353,354,355,0,356,357,358,359,360,0,361,362,363,364,365,366,367,368|369,370,371,372,373,374,375,376,377,0,378,379,380,0,381,382,383,384,385,386,387,388,389|390,391,392,393,394,0,395,396,397,398,399,0,400,401,402,403,404,0,405,406,407,408,409|410,411,412,413,414,0,415,416,417,418,419,0,420,421,422,423,424,0,425,426,427,428,429|430,431,432,433,434,0,435,436,437,438,439,0,440,441,442,443,444,0,445,446,447,448,449|];
int: num_letters = 26;
array [1..num_letters] of string: letters = ["a","b","c","d","e","f","g","h","i","j","k","l","m","n","o","p","q","r","s","t","u","v","w","x","y","z"];
int: N = 449;
array [0..N] of int: L;
string: problem_name = "23.04, 23 x 23";
